c 59_3_checker.cnf
c
c field = 59
c formula set type = 3_checker
c
p cnf 4 30
110 
112 
114 
-108 
111 
113 
115 
-109 
110 
112 
114 
-118 
111 
113 
115 
-119 
112 
114 
118 
-110 
113 
115 
119 
-111 
26 
56 
86 
-146 
27 
57 
87 
-147 
56 
86 
146 
-26 
57 
87 
147 
-27 
56 
86 
146 
-176 
57 
87 
147 
-177 
86 
146 
176 
-56 
87 
147 
177 
-57 
86 
146 
176 
-206 
87 
147 
177 
-207 
146 
176 
206 
-86 
147 
177 
207 
-87 
146 
176 
206 
-236 
147 
177 
207 
-237 
20 
52 
84 
-148 
21 
53 
85 
-149 
52 
84 
148 
-20 
53 
85 
149 
-21 
88 
144 
172 
-200 
89 
145 
173 
-201 
144 
172 
200 
-88 
145 
173 
201 
-89 
144 
172 
200 
-228 
145 
173 
201 
-229 
